JOBS = 1..4;
MACHINES = 1..8;
SPEED = 1;
time = array3d(JOBS,MACHINES,1..SPEED,[83,68,18,34,15,95,78,68,77,23,55,43,34,33,24,20,32,95,50,54,47,25,23,77,92,75,39,99,77,67,36,10]);
energy = array3d(JOBS,MACHINES,1..SPEED,[43,50,83,71,86,38,45,50,46,79,57,65,71,71,78,81,72,38,60,58,62,77,79,46,39,47,67,37,46,51,69,90]);
precedence = array2d(JOBS,MACHINES,[7,2,3,4,5,0,6,1,7,4,2,1,3,5,6,0,5,6,7,2,4,0,1,3,1,3,7,2,6,0,5,4]);
ME = 1;
TE = 249;
st_old = array2d(JOBS,MACHINES,[522,255,323,341,379,92,444,187,244,152,63,20,118,187,220,0,379,411,506,63,332,0,25,255,92,323,566,184,444,25,408,398]);
SpeedScaling = array2d(JOBS,MACHINES,[1,1,1,1,1,1,1,1,1,1,1,1,1,1,1,1,1,1,1,1,1,1,1,1,1,1,1,1,1,1,1,1]);
